3263825116698983340502,12,1,2,010,4,1,2,03,1,1,2,010,11,1,2,015,6,1,2,012,15,1,2,012,10,1,2,010,10,1,2,04,5,1,2,014,14,1,2,03,6,1,2,01,14,1,2,08,1,1,2,07,9,1,2,03,13,1,2,05,11,1,2,04,4,1,2,07,3,1,2,05,11,1,2,012,5,1,2,07,15,1,2,09,5,1,2,013,11,1,2,09,4,1,2,08,4,1,2,02,5,1,2,08,14,1,2,04,5,1,2,06,15,1,2,04,10,1,2,02,14,1,2,05,1,1,2,03,8,1,2,01,6,1,2,011,13,1,2,013,3,1,2,014,15,1,2,05,6,1,2,08,10,1,2,010,3,1,2,05,15,1,2,012,10,1,2,012,4,1,2,011,7,1,2,01,2,1,2,05,9,1,2,03,9,1,2,012,8,1,2,012,2,1,2,013,3,1,2,0